
Gurobi 11.0.3 (linux64) logging started Mon 18 Nov 2024 08:28:42 PM CST

Set parameter LogFile to value "/home/dlcole3/graph_abstraction/hierarchical_graphs/git_storage/CS1/HP_low_reserves/gurobi_logs/serial/logfile_ST8_2.log"

Gurobi 11.0.3 (linux64) logging started Mon 18 Nov 2024 08:29:49 PM CST

Set parameter LogFile to value "/home/dlcole3/graph_abstraction/hierarchical_graphs/git_storage/CS1/HP_low_reserves/gurobi_logs/serial/logfile_ST8_2.log"
Gurobi Optimizer version 11.0.3 build v11.0.3rc0 (linux64 - "Ubuntu 18.04.3 LTS")

CPU model: Intel(R) Xeon(R) CPU E5-2698 v4 @ 2.20GHz, instruction set [SSE2|AVX|AVX2]
Thread count: 40 physical cores, 80 logical processors, using up to 20 threads

Optimize a model with 29168 rows, 50688 columns and 136175 nonzeros
Model fingerprint: 0x185aa6a7
Variable types: 46944 continuous, 3744 integer (3744 binary)
Coefficient statistics:
  Matrix range     [6e-01, 2e+04]
  Objective range  [2e+00, 2e+04]
  Bounds range     [5e-02, 2e+05]
  RHS range        [5e-02, 7e+03]
Presolve removed 13519 rows and 38433 columns
Presolve time: 0.38s
Presolved: 15649 rows, 12255 columns, 65980 nonzeros
Variable types: 9234 continuous, 3021 integer (3021 binary)
Found heuristic solution: objective 182733.17801
Found heuristic solution: objective 179213.29412
Found heuristic solution: objective 166957.70522

Root relaxation: objective 5.627093e+04, 8228 iterations, 0.31 seconds (0.22 work units)

    Nodes    |    Current Node    |     Objective Bounds      |     Work
 Expl Unexpl |  Obj  Depth IntInf | Incumbent    BestBd   Gap | It/Node Time

     0     0 56270.9326    0   10 166957.705 56270.9326  66.3%     -    1s
H    0     0                    166957.70517 56270.9326  66.3%     -    1s
H    0     0                    56628.544136 56270.9326  0.63%     -    1s
     0     0 56285.3315    0   10 56628.5441 56285.3315  0.61%     -    1s
     0     0 56285.3315    0    2 56628.5441 56285.3315  0.61%     -    2s
H    0     0                    56628.544126 56285.3315  0.61%     -    2s
H    0     0                    56628.542940 56285.3315  0.61%     -    2s
     0     0 56306.1233    0    2 56628.5429 56306.1233  0.57%     -    2s
     0     2 56306.1233    0    2 56628.5429 56306.1233  0.57%     -    2s

Explored 14 nodes (13789 simplex iterations) in 2.76 seconds (1.61 work units)
Thread count was 20 (of 80 available processors)

Solution count 6: 56628.5 56628.5 56628.5 ... 182733

Optimal solution found (tolerance 3.00e-03)
Best objective 5.662854294992e+04, best bound 5.654138235360e+04, gap 0.1539%

User-callback calls 1515, time in user-callback 0.00 sec
